\ENCODING=ISO-8859-1
\Problem name: TP2

Maximize
 obj1: 800328494 x_j0 + 22076 x_j1 + 1719664640 x_j4 - 1043272075 x_j5 + 0 x_j6
       + 1087737728 x_j7 + 1077215232 x_j9 - 268435456 x_j10 + 1104351877 x_j11
       + 0 x_j12 + 1087737408 x_j13 + 0 x_j14 + 1075838976 x_j15 + 0 x_j16
       + 1104146432 x_j17 + 0 x_j18 - 1042546688 x_j19 - 1317011456 x_j20
       + 1104148514 x_j21 + 0 x_j22 - 1042546688 x_j23 - 1317011456 x_j24
       + 1104148514 x_j25 + 0 x_j26 - 1042546688 x_j27 - 1317011456 x_j28
       + 1104148514 x_j29 + 0 x_j30 + 1104148480 x_j31 + 0 x_j32
       + 1104148480 x_j33 + 0 x_j34 + 1104148480 x_j35 + 0 x_j36
       + 1104148480 x_j37 + 0 x_j38 + 1104148480 x_j39 + 603979776 x_j40
       + 1104412672 x_j41 + 0 x_j42 + 1088405952 x_j43 + 0 x_j44
       + 1104148480 x_j45 + 0 x_j46 + 1104148480 x_j47 + 0 x_j48
       + 1080434688 x_j49 - 335544320 x_j50 + 1104412951 x_j51 + 0 x_j52
       + 1088405952 x_j53 + 603979776 x_j54 + 1104412672 x_j55
       + 1088405952 x_j57 - 1043332096 x_j59 + 0 x_j60 + 1080041472 x_j61
       + 536870912 x_j62 + 1104412718 x_j63 + 1088405952 x_j65
       - 2080374784 x_j66 + 1104412952 x_j67 + 0 x_j68 + 1088405952 x_j69
       + 0 x_j70 + 1078493184 x_j71 - 1140850688 x_j72 + 1104412951 x_j73
       + 0 x_j74 + 1088405952 x_j75 + 603979776 x_j76 + 1104412672 x_j77
       + 0 x_j78 + 1088405952 x_j79 + 0 x_j80 + 1079508992 x_j81 + 0 x_j82
       + 1078067200 x_j83 + 1946157056 x_j84 - 1045490177 x_j85 + 0 x_j86
       + 1075576832 x_j87 + 0 x_j88 + 1102053376 x_j89 + 1080819712 x_j91
       + 0 x_j92 + 1078591488 x_j93 + 2122317824 x_j94 - 1042816089 x_j95
       + 0 x_j96 + 1088405504 x_j97 + 0 x_j98 + 1102053376 x_j99
Subject To
 capacity_1: 1670693388 x_j0 + 5 x_j1 + 1087737728 x_j5 + 1077215232 x_j7
             - 268435456 x_j8 + 1104351877 x_j9 + 1087737408 x_j11
             + 1081540608 x_j13 + 1075838976 x_j15 + 1104146432 x_j17
             - 1042546688 x_j19 - 1317011456 x_j20 + 1104148514 x_j21
             - 1042546688 x_j23 - 1317011456 x_j24 + 1104148514 x_j25
             - 1042546688 x_j27 - 1317011456 x_j28 + 1104148514 x_j29
             + 1104148480 x_j31 + 1104148480 x_j33 + 1104148480 x_j35
             + 1104148480 x_j37 + 1104148480 x_j39 + 603979776 x_j40
             + 1104412672 x_j41 + 1088405952 x_j43 + 1104148480 x_j45
             + 1104148480 x_j47 + 1080434688 x_j49 - 335544320 x_j50
             + 1104412951 x_j51 + 1088405952 x_j53 + 603979776 x_j54
             + 1104412672 x_j55 + 1088405952 x_j57 - 1043332096 x_j59
             + 1080041472 x_j61 + 536870912 x_j62 + 1104412718 x_j63
             + 1088405952 x_j65 - 2080374784 x_j66 + 1104412952 x_j67
             + 1088405952 x_j69 + 1078493184 x_j71 - 1140850688 x_j72
             + 1104412951 x_j73 + 1088405952 x_j75 + 603979776 x_j76
             + 1104412672 x_j77 + 1088405952 x_j79 + 1079508992 x_j81
             + 1078067200 x_j83 + 1946157056 x_j84 - 1045490177 x_j85
             + 1075576832 x_j87 + 1102053376 x_j89 + 1080819712 x_j91
             + 1078591488 x_j93 + 2122317824 x_j94 - 1042816089 x_j95
             + 1088405504 x_j97 + 1102053376 x_j99 <= 200
 capacity_2: 1845280416 x_j0 + 32519 x_j1 + 1278392880 x_j2 + 22073 x_j3
             + 1610612736 x_j23 - x_j24 - x_j25 + 1744833408 x_j56
             + 32519 x_j57 - x_j58 - x_j59 + 1278045192 x_j62 + 22073 x_j63
             + 1235377824 x_j64 + 32766 x_j65 + 1281709040 x_j66 + 22073 x_j67
             + 8 x_j72 + 6 x_j73 - x_j90 <= 150
Bounds
 0 <= x_j0 <= 1
 0 <= x_j1 <= 1
 0 <= x_j2 <= 1
 0 <= x_j3 <= 1
 0 <= x_j4 <= 1
 0 <= x_j5 <= 1
 0 <= x_j6 <= 1
 0 <= x_j7 <= 1
 0 <= x_j8 <= 1
 0 <= x_j9 <= 1
 0 <= x_j10 <= 1
 0 <= x_j11 <= 1
 0 <= x_j12 <= 1
 0 <= x_j13 <= 1
 0 <= x_j14 <= 1
 0 <= x_j15 <= 1
 0 <= x_j16 <= 1
 0 <= x_j17 <= 1
 0 <= x_j18 <= 1
 0 <= x_j19 <= 1
 0 <= x_j20 <= 1
 0 <= x_j21 <= 1
 0 <= x_j22 <= 1
 0 <= x_j23 <= 1
 0 <= x_j24 <= 1
 0 <= x_j25 <= 1
 0 <= x_j26 <= 1
 0 <= x_j27 <= 1
 0 <= x_j28 <= 1
 0 <= x_j29 <= 1
 0 <= x_j30 <= 1
 0 <= x_j31 <= 1
 0 <= x_j32 <= 1
 0 <= x_j33 <= 1
 0 <= x_j34 <= 1
 0 <= x_j35 <= 1
 0 <= x_j36 <= 1
 0 <= x_j37 <= 1
 0 <= x_j38 <= 1
 0 <= x_j39 <= 1
 0 <= x_j40 <= 1
 0 <= x_j41 <= 1
 0 <= x_j42 <= 1
 0 <= x_j43 <= 1
 0 <= x_j44 <= 1
 0 <= x_j45 <= 1
 0 <= x_j46 <= 1
 0 <= x_j47 <= 1
 0 <= x_j48 <= 1
 0 <= x_j49 <= 1
 0 <= x_j50 <= 1
 0 <= x_j51 <= 1
 0 <= x_j52 <= 1
 0 <= x_j53 <= 1
 0 <= x_j54 <= 1
 0 <= x_j55 <= 1
 0 <= x_j56 <= 1
 0 <= x_j57 <= 1
 0 <= x_j58 <= 1
 0 <= x_j59 <= 1
 0 <= x_j60 <= 1
 0 <= x_j61 <= 1
 0 <= x_j62 <= 1
 0 <= x_j63 <= 1
 0 <= x_j64 <= 1
 0 <= x_j65 <= 1
 0 <= x_j66 <= 1
 0 <= x_j67 <= 1
 0 <= x_j68 <= 1
 0 <= x_j69 <= 1
 0 <= x_j70 <= 1
 0 <= x_j71 <= 1
 0 <= x_j72 <= 1
 0 <= x_j73 <= 1
 0 <= x_j74 <= 1
 0 <= x_j75 <= 1
 0 <= x_j76 <= 1
 0 <= x_j77 <= 1
 0 <= x_j78 <= 1
 0 <= x_j79 <= 1
 0 <= x_j80 <= 1
 0 <= x_j81 <= 1
 0 <= x_j82 <= 1
 0 <= x_j83 <= 1
 0 <= x_j84 <= 1
 0 <= x_j85 <= 1
 0 <= x_j86 <= 1
 0 <= x_j87 <= 1
 0 <= x_j88 <= 1
 0 <= x_j89 <= 1
 0 <= x_j90 <= 1
 0 <= x_j91 <= 1
 0 <= x_j92 <= 1
 0 <= x_j93 <= 1
 0 <= x_j94 <= 1
 0 <= x_j95 <= 1
 0 <= x_j96 <= 1
 0 <= x_j97 <= 1
 0 <= x_j98 <= 1
 0 <= x_j99 <= 1
Binaries
 x_j0  x_j1  x_j2  x_j3  x_j4  x_j5  x_j6  x_j7  x_j8  x_j9  x_j10  x_j11 
 x_j12  x_j13  x_j14  x_j15  x_j16  x_j17  x_j18  x_j19  x_j20  x_j21  x_j22 
 x_j23  x_j24  x_j25  x_j26  x_j27  x_j28  x_j29  x_j30  x_j31  x_j32  x_j33 
 x_j34  x_j35  x_j36  x_j37  x_j38  x_j39  x_j40  x_j41  x_j42  x_j43  x_j44 
 x_j45  x_j46  x_j47  x_j48  x_j49  x_j50  x_j51  x_j52  x_j53  x_j54  x_j55 
 x_j56  x_j57  x_j58  x_j59  x_j60  x_j61  x_j62  x_j63  x_j64  x_j65  x_j66 
 x_j67  x_j68  x_j69  x_j70  x_j71  x_j72  x_j73  x_j74  x_j75  x_j76  x_j77 
 x_j78  x_j79  x_j80  x_j81  x_j82  x_j83  x_j84  x_j85  x_j86  x_j87  x_j88 
 x_j89  x_j90  x_j91  x_j92  x_j93  x_j94  x_j95  x_j96  x_j97  x_j98  x_j99 
End
